p cnf 325 633
-4 3 0
2 -4 0
-2 4 -3 0
-6 3 0
5 -6 0
-5 6 -3 0
-8 3 0
7 -8 0
-7 8 -3 0
-10 3 0
9 -10 0
-9 10 -3 0
-12 3 0
11 -12 0
-11 12 -3 0
-14 3 0
13 -14 0
-13 14 -3 0
-16 3 0
15 -16 0
-15 16 -3 0
-18 3 0
-18 17 0
18 -17 -3 0
-18 -19 0
-16 -19 0
-14 -19 0
-12 -19 0
-10 -19 0
-8 -19 0
-6 -19 0
-4 -19 0
6 4 208 0
-208 8 209 0
-209 10 210 0
-210 12 211 0
-211 14 212 0
-212 16 213 0
-213 18 19 0
19 -20 3 0
2 -23 0
-23 22 0
-2 -22 23 0
5 -24 0
-24 22 0
-5 -22 24 0
7 -25 0
-25 22 0
-7 -22 25 0
9 -26 0
-26 22 0
-9 -22 26 0
11 -27 0
-27 22 0
-11 -22 27 0
13 -28 0
-28 22 0
-13 -22 28 0
15 -29 0
-29 22 0
-15 -22 29 0
-30 17 0
22 -30 0
-22 -17 30 0
17 -33 0
-32 -33 0
-31 -33 0
22 -33 0
-30 -33 0
-29 -33 0
-28 -33 0
-27 -33 0
-26 -33 0
-25 -33 0
-24 -33 0
-23 -33 0
-17 -22 214 0
-214 23 215 0
-215 24 216 0
-216 25 217 0
-217 26 218 0
-218 27 219 0
-219 28 220 0
-220 29 221 0
-221 30 222 0
-222 31 223 0
-223 32 33 0
-36 35 0
-36 34 0
36 -34 -35 0
-38 35 0
37 -38 0
-37 38 -35 0
-40 35 0
39 -40 0
-39 40 -35 0
-42 35 0
41 -42 0
-41 42 -35 0
-44 35 0
43 -44 0
-43 44 -35 0
-46 35 0
45 -46 0
-45 46 -35 0
-48 35 0
47 -48 0
-47 48 -35 0
-50 35 0
49 -50 0
-49 50 -35 0
-50 -51 0
-48 -51 0
-46 -51 0
-44 -51 0
-42 -51 0
-40 -51 0
-38 -51 0
-36 -51 0
38 36 224 0
-224 40 225 0
-225 42 226 0
-226 44 227 0
-227 46 228 0
-228 48 229 0
-229 50 51 0
3 -52 0
-35 -52 0
-51 -52 0
35 51 230 0
-230 52 -3 0
-54 34 0
53 -54 0
-53 -34 54 0
37 -55 0
-55 53 0
-37 -53 55 0
39 -56 0
-56 53 0
-39 -53 56 0
41 -57 0
-57 53 0
-41 -53 57 0
43 -58 0
-58 53 0
-43 -53 58 0
45 -59 0
-59 53 0
-45 -53 59 0
47 -60 0
-60 53 0
-47 -53 60 0
49 -61 0
-61 53 0
-49 -53 61 0
-17 -62 0
-22 -62 0
34 -62 0
53 -62 0
-61 -62 0
-60 -62 0
-59 -62 0
-58 -62 0
-57 -62 0
-56 -62 0
-55 -62 0
-54 -62 0
22 -34 231 0
-231 62 232 0
-232 -53 233 0
-233 54 234 0
-234 55 235 0
-235 56 236 0
-236 57 237 0
-237 58 238 0
-238 59 239 0
-239 60 240 0
-240 61 17 0
-65 64 0
-65 63 0
65 -63 -64 0
-67 64 0
66 -67 0
-66 67 -64 0
-69 64 0
68 -69 0
-68 69 -64 0
-71 64 0
70 -71 0
-70 71 -64 0
-73 64 0
72 -73 0
-72 73 -64 0
-75 64 0
74 -75 0
-74 75 -64 0
-77 64 0
76 -77 0
-76 77 -64 0
-79 64 0
78 -79 0
-78 79 -64 0
-79 -80 0
-77 -80 0
-75 -80 0
-73 -80 0
-71 -80 0
-69 -80 0
-67 -80 0
-65 -80 0
67 65 241 0
-241 69 242 0
-242 71 243 0
-243 73 244 0
-244 75 245 0
-245 77 246 0
-246 79 80 0
35 -81 0
-64 -81 0
-80 -81 0
64 80 247 0
-247 81 -35 0
-83 63 0
82 -83 0
-82 -63 83 0
66 -84 0
-84 82 0
-66 -82 84 0
68 -85 0
-85 82 0
-68 -82 85 0
70 -86 0
-86 82 0
-70 -82 86 0
72 -87 0
-87 82 0
-72 -82 87 0
74 -88 0
-88 82 0
-74 -82 88 0
76 -89 0
-89 82 0
-76 -82 89 0
78 -90 0
-90 82 0
-78 -82 90 0
-34 -91 0
-53 -91 0
63 -91 0
82 -91 0
-90 -91 0
-89 -91 0
-88 -91 0
-87 -91 0
-86 -91 0
-85 -91 0
-84 -91 0
-83 -91 0
53 -63 248 0
-248 91 249 0
-249 -82 250 0
-250 83 251 0
-251 84 252 0
-252 85 253 0
-253 86 254 0
-254 87 255 0
-255 88 256 0
-256 89 257 0
-257 90 34 0
-94 93 0
-94 92 0
94 -92 -93 0
-96 93 0
95 -96 0
-95 96 -93 0
-98 93 0
97 -98 0
-97 98 -93 0
-100 93 0
99 -100 0
-99 100 -93 0
-102 93 0
101 -102 0
-101 102 -93 0
-104 93 0
103 -104 0
-103 104 -93 0
-106 93 0
105 -106 0
-105 106 -93 0
-108 93 0
107 -108 0
-107 108 -93 0
-108 -109 0
-106 -109 0
-104 -109 0
-102 -109 0
-100 -109 0
-98 -109 0
-96 -109 0
-94 -109 0
96 94 258 0
-258 98 259 0
-259 100 260 0
-260 102 261 0
-261 104 262 0
-262 106 263 0
-263 108 109 0
64 -110 0
-93 -110 0
-109 -110 0
93 109 264 0
-264 110 -64 0
-112 92 0
111 -112 0
-111 -92 112 0
95 -113 0
-113 111 0
-95 -111 113 0
97 -114 0
-114 111 0
-97 -111 114 0
99 -115 0
-115 111 0
-99 -111 115 0
101 -116 0
-116 111 0
-101 -111 116 0
103 -117 0
-117 111 0
-103 -111 117 0
105 -118 0
-118 111 0
-105 -111 118 0
107 -119 0
-119 111 0
-107 -111 119 0
-63 -120 0
-82 -120 0
92 -120 0
111 -120 0
-119 -120 0
-118 -120 0
-117 -120 0
-116 -120 0
-115 -120 0
-114 -120 0
-113 -120 0
-112 -120 0
82 -92 265 0
-265 120 266 0
-266 -111 267 0
-267 112 268 0
-268 113 269 0
-269 114 270 0
-270 115 271 0
-271 116 272 0
-272 117 273 0
-273 118 274 0
-274 119 63 0
-123 122 0
-123 121 0
123 -121 -122 0
-125 122 0
124 -125 0
-124 125 -122 0
-127 122 0
126 -127 0
-126 127 -122 0
-129 122 0
128 -129 0
-128 129 -122 0
-131 122 0
130 -131 0
-130 131 -122 0
-133 122 0
132 -133 0
-132 133 -122 0
-135 122 0
134 -135 0
-134 135 -122 0
-137 122 0
136 -137 0
-136 137 -122 0
-137 -138 0
-135 -138 0
-133 -138 0
-131 -138 0
-129 -138 0
-127 -138 0
-125 -138 0
-123 -138 0
125 123 275 0
-275 127 276 0
-276 129 277 0
-277 131 278 0
-278 133 279 0
-279 135 280 0
-280 137 138 0
93 -139 0
-122 -139 0
-138 -139 0
122 138 281 0
-281 139 -93 0
-141 121 0
140 -141 0
-140 -121 141 0
124 -142 0
-142 140 0
-124 -140 142 0
126 -143 0
-143 140 0
-126 -140 143 0
128 -144 0
-144 140 0
-128 -140 144 0
130 -145 0
-145 140 0
-130 -140 145 0
132 -146 0
-146 140 0
-132 -140 146 0
134 -147 0
-147 140 0
-134 -140 147 0
136 -148 0
-148 140 0
-136 -140 148 0
-92 -149 0
-111 -149 0
121 -149 0
140 -149 0
-148 -149 0
-147 -149 0
-146 -149 0
-145 -149 0
-144 -149 0
-143 -149 0
-142 -149 0
-141 -149 0
111 -121 282 0
-282 149 283 0
-283 -140 284 0
-284 141 285 0
-285 142 286 0
-286 143 287 0
-287 144 288 0
-288 145 289 0
-289 146 290 0
-290 147 291 0
-291 148 92 0
-152 151 0
-152 150 0
152 -150 -151 0
-154 151 0
153 -154 0
-153 154 -151 0
-156 151 0
155 -156 0
-155 156 -151 0
-158 151 0
157 -158 0
-157 158 -151 0
-160 151 0
159 -160 0
-159 160 -151 0
-162 151 0
161 -162 0
-161 162 -151 0
-164 151 0
163 -164 0
-163 164 -151 0
-166 151 0
165 -166 0
-165 166 -151 0
-166 -167 0
-164 -167 0
-162 -167 0
-160 -167 0
-158 -167 0
-156 -167 0
-154 -167 0
-152 -167 0
154 152 292 0
-292 156 293 0
-293 158 294 0
-294 160 295 0
-295 162 296 0
-296 164 297 0
-297 166 167 0
122 -168 0
-151 -168 0
-167 -168 0
151 167 298 0
-298 168 -122 0
-170 150 0
169 -170 0
-169 -150 170 0
153 -171 0
-171 169 0
-153 -169 171 0
155 -172 0
-172 169 0
-155 -169 172 0
157 -173 0
-173 169 0
-157 -169 173 0
159 -174 0
-174 169 0
-159 -169 174 0
161 -175 0
-175 169 0
-161 -169 175 0
163 -176 0
-176 169 0
-163 -169 176 0
165 -177 0
-177 169 0
-165 -169 177 0
-121 -178 0
-140 -178 0
150 -178 0
169 -178 0
-177 -178 0
-176 -178 0
-175 -178 0
-174 -178 0
-173 -178 0
-172 -178 0
-171 -178 0
-170 -178 0
140 -150 299 0
-299 178 300 0
-300 -169 301 0
-301 170 302 0
-302 171 303 0
-303 172 304 0
-304 173 305 0
-305 174 306 0
-306 175 307 0
-307 176 308 0
-308 177 121 0
-181 180 0
179 -181 0
-180 181 -179 0
-183 180 0
182 -183 0
-180 -182 183 0
-185 180 0
184 -185 0
-180 -184 185 0
-187 180 0
186 -187 0
-180 -186 187 0
-189 180 0
188 -189 0
-180 -188 189 0
-191 180 0
190 -191 0
-180 -190 191 0
-193 180 0
192 -193 0
-180 -192 193 0
-195 180 0
194 -195 0
-180 -194 195 0
-195 -196 0
-193 -196 0
-191 -196 0
-189 -196 0
-187 -196 0
-185 -196 0
-183 -196 0
-181 -196 0
183 181 309 0
-309 185 310 0
-310 187 311 0
-311 189 312 0
-312 191 313 0
-313 193 314 0
-314 195 196 0
151 -197 0
-180 -197 0
-196 -197 0
180 196 315 0
-315 197 -151 0
179 -199 0
198 -199 0
-198 -179 199 0
182 -200 0
198 -200 0
-182 -198 200 0
184 -201 0
198 -201 0
-184 -198 201 0
186 -202 0
198 -202 0
-186 -198 202 0
188 -203 0
198 -203 0
-188 -198 203 0
190 -204 0
198 -204 0
-190 -198 204 0
192 -205 0
198 -205 0
-192 -198 205 0
194 -206 0
198 -206 0
-194 -198 206 0
-150 -207 0
-169 -207 0
179 -207 0
198 -207 0
-206 -207 0
-205 -207 0
-204 -207 0
-203 -207 0
-202 -207 0
-201 -207 0
-200 -207 0
-199 -207 0
169 -179 316 0
-316 207 317 0
-317 -198 318 0
-318 199 319 0
-319 200 320 0
-320 201 321 0
-321 202 322 0
-322 203 323 0
-323 204 324 0
-324 205 325 0
-325 206 150 0
